data/lp_files/pEFS/38_2.lp
\ Model foo
\ LP format - for model browsing. Use MPS format to capture full model detail.
Minimize
  z
Subject To
 allocateEach[1]: x[1,1] + x[2,1] = 1
 allocateEach[2]: x[1,2] + x[2,2] = 1
 allocateEach[3]: x[1,3] + x[2,3] = 1
 allocateEach[4]: x[1,4] + x[2,4] = 1
 allocateEach[5]: x[1,5] + x[2,5] = 1
 allocateEach[6]: x[1,6] + x[2,6] = 1
 allocateEach[7]: x[1,7] + x[2,7] = 1
 allocateEach[8]: x[1,8] + x[2,8] = 1
 allocateEach[9]: x[1,9] + x[2,9] = 1
 allocateEach[10]: x[1,10] + x[2,10] = 1
 allocateEach[11]: x[1,11] + x[2,11] = 1
 allocateEach[12]: x[1,12] + x[2,12] = 1
 allocateEach[13]: x[1,13] + x[2,13] = 1
 allocateEach[14]: x[1,14] + x[2,14] = 1
 allocateEach[15]: x[1,15] + x[2,15] = 1
 allocateEach[16]: x[1,16] + x[2,16] = 1
 allocateEach[17]: x[1,17] + x[2,17] = 1
 allocateEach[18]: x[1,18] + x[2,18] = 1
 allocateAllCash: cashProportion[1] + cashProportion[2] = 1
 findWorstP[1,2]: z + 0.0157534893979016 cashProportion[1]
   - 0.0157534893979016 cashProportion[2] + 0.0652614554123738 x[1,1]
   + 0.0416102166629909 x[1,2] + 0.0971885272587878 x[1,3]
   + 0.0533938267326213 x[1,4] + 0.0101557494985139 x[1,5]
   + 0.0579833433105433 x[1,6] + 0.0177594337145678 x[1,7]
   + 0.0789669911885483 x[1,8] + 0.0497705241711039 x[1,9]
   + 0.0187781593622987 x[1,10] + 0.0455695936649968 x[1,11]
   + 0.0706701534389867 x[1,12] + 0.0581828875095834 x[1,13]
   + 0.1041200625938645 x[1,14] + 0.0302887089490322 x[1,15]
   + 0.059894766690822 x[1,16] + 0.0256256760872533 x[1,17]
   + 0.0990264343552097 x[1,18] - 0.0652614554123738 x[2,1]
   - 0.0416102166629909 x[2,2] - 0.0971885272587878 x[2,3]
   - 0.0533938267326213 x[2,4] - 0.0101557494985139 x[2,5]
   - 0.0579833433105433 x[2,6] - 0.0177594337145678 x[2,7]
   - 0.0789669911885483 x[2,8] - 0.0497705241711039 x[2,9]
   - 0.0187781593622987 x[2,10] - 0.0455695936649968 x[2,11]
   - 0.0706701534389867 x[2,12] - 0.0581828875095834 x[2,13]
   - 0.1041200625938645 x[2,14] - 0.0302887089490322 x[2,15]
   - 0.059894766690822 x[2,16] - 0.0256256760872533 x[2,17]
   - 0.0990264343552097 x[2,18] >= 0
 findWorstP[2,1]: z - 0.01434610455441 cashProportion[1]
   + 0.01434610455441 cashProportion[2] - 0.054668222422005 x[1,1]
   - 0.0913751219418887 x[1,2] - 0.0181239120870713 x[1,3]
   - 0.0481072706057882 x[1,4] - 0.0246848639032881 x[1,5]
   - 0.0895196924195184 x[1,6] - 0.0764073528567876 x[1,7]
   - 0.0317527114137608 x[1,8] - 0.044463360048968 x[1,9]
   - 0.0717018305629411 x[1,10] - 0.0681822529122592 x[1,11]
   - 0.00321352742018784 x[1,12] - 0.0601962547103043 x[1,13]
   - 0.0832934830429044 x[1,14] - 0.0673406147784005 x[1,15]
   - 0.0581878 x[1,16] - 0.0899118192773389 x[1,17]
   - 0.00452380496949062 x[1,18] + 0.054668222422005 x[2,1]
   + 0.0913751219418887 x[2,2] + 0.0181239120870713 x[2,3]
   + 0.0481072706057882 x[2,4] + 0.0246848639032881 x[2,5]
   + 0.0895196924195184 x[2,6] + 0.0764073528567876 x[2,7]
   + 0.0317527114137608 x[2,8] + 0.044463360048968 x[2,9]
   + 0.0717018305629411 x[2,10] + 0.0681822529122592 x[2,11]
   + 0.00321352742018784 x[2,12] + 0.0601962547103043 x[2,13]
   + 0.0832934830429044 x[2,14] + 0.0673406147784005 x[2,15]
   + 0.0581878 x[2,16] + 0.0899118192773389 x[2,17]
   + 0.00452380496949062 x[2,18] >= 0
Bounds
 z <= 1
 -infinity <= cashProportion[1] <= 1
 -infinity <= cashProportion[2] <= 1
Binaries
 x[1,1] x[1,2] x[1,3] x[1,4] x[1,5] x[1,6] x[1,7] x[1,8] x[1,9] x[1,10]
 x[1,11] x[1,12] x[1,13] x[1,14] x[1,15] x[1,16] x[1,17] x[1,18] x[2,1]
 x[2,2] x[2,3] x[2,4] x[2,5] x[2,6] x[2,7] x[2,8] x[2,9] x[2,10] x[2,11]
 x[2,12] x[2,13] x[2,14] x[2,15] x[2,16] x[2,17] x[2,18]
End
