data/mps_files/q3/38_2.mps
NAME foo
ROWS
 N  OBJ
 E  allocateEach[1]
 E  allocateEach[2]
 E  allocateEach[3]
 E  allocateEach[4]
 E  allocateEach[5]
 E  allocateEach[6]
 E  allocateEach[7]
 E  allocateEach[8]
 E  allocateEach[9]
 E  allocateEach[10]
 E  allocateEach[11]
 E  allocateEach[12]
 E  allocateEach[13]
 E  allocateEach[14]
 E  allocateEach[15]
 E  allocateEach[16]
 E  allocateEach[17]
 E  allocateEach[18]
 E  allocateAllCash
 G  findWorstP[1,2]
 G  findWorstP[2,1]
COLUMNS
    z         OBJ       1
    z         findWorstP[1,2]  1
    z         findWorstP[2,1]  1
    cashProportion[1]  allocateAllCash  1
    cashProportion[1]  findWorstP[1,2]  1.5753489397901638e-02
    cashProportion[1]  findWorstP[2,1]  -1.4346104554409995e-02
    cashProportion[2]  allocateAllCash  1
    cashProportion[2]  findWorstP[1,2]  -1.5753489397901638e-02
    cashProportion[2]  findWorstP[2,1]  1.4346104554409995e-02
    MARKER    'MARKER'                 'INTORG'
    x[1,1]    allocateEach[1]  1
    x[1,1]    findWorstP[1,2]  6.5261455412373839e-02
    x[1,1]    findWorstP[2,1]  -5.4668222422005010e-02
    x[1,2]    allocateEach[2]  1
    x[1,2]    findWorstP[1,2]  4.1610216662990855e-02
    x[1,2]    findWorstP[2,1]  -9.1375121941888710e-02
    x[1,3]    allocateEach[3]  1
    x[1,3]    findWorstP[1,2]  9.7188527258787821e-02
    x[1,3]    findWorstP[2,1]  -1.8123912087071290e-02
    x[1,4]    allocateEach[4]  1
    x[1,4]    findWorstP[1,2]  5.3393826732621275e-02
    x[1,4]    findWorstP[2,1]  -4.8107270605788177e-02
    x[1,5]    allocateEach[5]  1
    x[1,5]    findWorstP[1,2]  1.0155749498513920e-02
    x[1,5]    findWorstP[2,1]  -2.4684863903288126e-02
    x[1,6]    allocateEach[6]  1
    x[1,6]    findWorstP[1,2]  5.7983343310543292e-02
    x[1,6]    findWorstP[2,1]  -8.9519692419518362e-02
    x[1,7]    allocateEach[7]  1
    x[1,7]    findWorstP[1,2]  1.7759433714567778e-02
    x[1,7]    findWorstP[2,1]  -7.6407352856787625e-02
    x[1,8]    allocateEach[8]  1
    x[1,8]    findWorstP[1,2]  7.8966991188548261e-02
    x[1,8]    findWorstP[2,1]  -3.1752711413760785e-02
    x[1,9]    allocateEach[9]  1
    x[1,9]    findWorstP[1,2]  0.0497705241711039
    x[1,9]    findWorstP[2,1]  -4.4463360048968038e-02
    x[1,10]   allocateEach[10]  1
    x[1,10]   findWorstP[1,2]  1.8778159362298749e-02
    x[1,10]   findWorstP[2,1]  -7.1701830562941146e-02
    x[1,11]   allocateEach[11]  1
    x[1,11]   findWorstP[1,2]  0.0455695936649968
    x[1,11]   findWorstP[2,1]  -6.8182252912259225e-02
    x[1,12]   allocateEach[12]  1
    x[1,12]   findWorstP[1,2]  7.0670153438986749e-02
    x[1,12]   findWorstP[2,1]  -3.2135274201878380e-03
    x[1,13]   allocateEach[13]  1
    x[1,13]   findWorstP[1,2]  5.8182887509583378e-02
    x[1,13]   findWorstP[2,1]  -6.0196254710304327e-02
    x[1,14]   allocateEach[14]  1
    x[1,14]   findWorstP[1,2]  1.0412006259386454e-01
    x[1,14]   findWorstP[2,1]  -8.3293483042904418e-02
    x[1,15]   allocateEach[15]  1
    x[1,15]   findWorstP[1,2]  3.0288708949032211e-02
    x[1,15]   findWorstP[2,1]  -0.0673406147784005
    x[1,16]   allocateEach[16]  1
    x[1,16]   findWorstP[1,2]  5.9894766690822020e-02
    x[1,16]   findWorstP[2,1]  -5.8187800072686938e-02
    x[1,17]   allocateEach[17]  1
    x[1,17]   findWorstP[1,2]  2.5625676087253326e-02
    x[1,17]   findWorstP[2,1]  -8.9911819277338892e-02
    x[1,18]   allocateEach[18]  1
    x[1,18]   findWorstP[1,2]  9.9026434355209678e-02
    x[1,18]   findWorstP[2,1]  -4.5238049694906182e-03
    x[2,1]    allocateEach[1]  1
    x[2,1]    findWorstP[1,2]  -6.5261455412373839e-02
    x[2,1]    findWorstP[2,1]  5.4668222422005010e-02
    x[2,2]    allocateEach[2]  1
    x[2,2]    findWorstP[1,2]  -4.1610216662990855e-02
    x[2,2]    findWorstP[2,1]  9.1375121941888710e-02
    x[2,3]    allocateEach[3]  1
    x[2,3]    findWorstP[1,2]  -9.7188527258787821e-02
    x[2,3]    findWorstP[2,1]  1.8123912087071290e-02
    x[2,4]    allocateEach[4]  1
    x[2,4]    findWorstP[1,2]  -5.3393826732621275e-02
    x[2,4]    findWorstP[2,1]  4.8107270605788177e-02
    x[2,5]    allocateEach[5]  1
    x[2,5]    findWorstP[1,2]  -1.0155749498513920e-02
    x[2,5]    findWorstP[2,1]  2.4684863903288126e-02
    x[2,6]    allocateEach[6]  1
    x[2,6]    findWorstP[1,2]  -5.7983343310543292e-02
    x[2,6]    findWorstP[2,1]  8.9519692419518362e-02
    x[2,7]    allocateEach[7]  1
    x[2,7]    findWorstP[1,2]  -1.7759433714567778e-02
    x[2,7]    findWorstP[2,1]  7.6407352856787625e-02
    x[2,8]    allocateEach[8]  1
    x[2,8]    findWorstP[1,2]  -7.8966991188548261e-02
    x[2,8]    findWorstP[2,1]  3.1752711413760785e-02
    x[2,9]    allocateEach[9]  1
    x[2,9]    findWorstP[1,2]  -0.0497705241711039
    x[2,9]    findWorstP[2,1]  4.4463360048968038e-02
    x[2,10]   allocateEach[10]  1
    x[2,10]   findWorstP[1,2]  -1.8778159362298749e-02
    x[2,10]   findWorstP[2,1]  7.1701830562941146e-02
    x[2,11]   allocateEach[11]  1
    x[2,11]   findWorstP[1,2]  -0.0455695936649968
    x[2,11]   findWorstP[2,1]  6.8182252912259225e-02
    x[2,12]   allocateEach[12]  1
    x[2,12]   findWorstP[1,2]  -7.0670153438986749e-02
    x[2,12]   findWorstP[2,1]  3.2135274201878380e-03
    x[2,13]   allocateEach[13]  1
    x[2,13]   findWorstP[1,2]  -5.8182887509583378e-02
    x[2,13]   findWorstP[2,1]  6.0196254710304327e-02
    x[2,14]   allocateEach[14]  1
    x[2,14]   findWorstP[1,2]  -1.0412006259386454e-01
    x[2,14]   findWorstP[2,1]  8.3293483042904418e-02
    x[2,15]   allocateEach[15]  1
    x[2,15]   findWorstP[1,2]  -3.0288708949032211e-02
    x[2,15]   findWorstP[2,1]  0.0673406147784005
    x[2,16]   allocateEach[16]  1
    x[2,16]   findWorstP[1,2]  -5.9894766690822020e-02
    x[2,16]   findWorstP[2,1]  5.8187800072686938e-02
    x[2,17]   allocateEach[17]  1
    x[2,17]   findWorstP[1,2]  -2.5625676087253326e-02
    x[2,17]   findWorstP[2,1]  8.9911819277338892e-02
    x[2,18]   allocateEach[18]  1
    x[2,18]   findWorstP[1,2]  -9.9026434355209678e-02
    x[2,18]   findWorstP[2,1]  4.5238049694906182e-03
    MARKER    'MARKER'                 'INTEND'
RHS
    RHS1      allocateEach[1]  1
    RHS1      allocateEach[2]  1
    RHS1      allocateEach[3]  1
    RHS1      allocateEach[4]  1
    RHS1      allocateEach[5]  1
    RHS1      allocateEach[6]  1
    RHS1      allocateEach[7]  1
    RHS1      allocateEach[8]  1
    RHS1      allocateEach[9]  1
    RHS1      allocateEach[10]  1
    RHS1      allocateEach[11]  1
    RHS1      allocateEach[12]  1
    RHS1      allocateEach[13]  1
    RHS1      allocateEach[14]  1
    RHS1      allocateEach[15]  1
    RHS1      allocateEach[16]  1
    RHS1      allocateEach[17]  1
    RHS1      allocateEach[18]  1
    RHS1      allocateAllCash  1
BOUNDS
 UP BND1      z         1
 MI BND1      cashProportion[1]
 UP BND1      cashProportion[1]  1
 MI BND1      cashProportion[2]
 UP BND1      cashProportion[2]  1
 BV BND1      x[1,1]  
 BV BND1      x[1,2]  
 BV BND1      x[1,3]  
 BV BND1      x[1,4]  
 BV BND1      x[1,5]  
 BV BND1      x[1,6]  
 BV BND1      x[1,7]  
 BV BND1      x[1,8]  
 BV BND1      x[1,9]  
 BV BND1      x[1,10] 
 BV BND1      x[1,11] 
 BV BND1      x[1,12] 
 BV BND1      x[1,13] 
 BV BND1      x[1,14] 
 BV BND1      x[1,15] 
 BV BND1      x[1,16] 
 BV BND1      x[1,17] 
 BV BND1      x[1,18] 
 BV BND1      x[2,1]  
 BV BND1      x[2,2]  
 BV BND1      x[2,3]  
 BV BND1      x[2,4]  
 BV BND1      x[2,5]  
 BV BND1      x[2,6]  
 BV BND1      x[2,7]  
 BV BND1      x[2,8]  
 BV BND1      x[2,9]  
 BV BND1      x[2,10] 
 BV BND1      x[2,11] 
 BV BND1      x[2,12] 
 BV BND1      x[2,13] 
 BV BND1      x[2,14] 
 BV BND1      x[2,15] 
 BV BND1      x[2,16] 
 BV BND1      x[2,17] 
 BV BND1      x[2,18] 
ENDATA
